21° run output:
{
    "Function": "kroA400.tsp",
    "Problem dimension": [
        31,
        135,
        179,
        189,
        253,
        27,
        281,
        307,
        233,
        301,
        358,
        236,
        309,
        136,
        265,
        300,
        364,
        3,
        250,
        118,
        325,
        17,
        278,
        54,
        242,
        157,
        74,
        229,
        1,
        126,
        394,
        38,
        293,
        20,
        88,
        382,
        398,
        272,
        353,
        247,
        150,
        342,
        174,
        10,
        259,
        260,
        170,
        113,
        336,
        261,
        13,
        291,
        32,
        258,
        193,
        227,
        395,
        100,
        172,
        182,
        184,
        138,
        362,
        320,
        285,
        314,
        328,
        343,
        19,
        230,
        284,
        282,
        355,
        48,
        371,
        226,
        385,
        333,
        69,
        267,
        354,
        4,
        87,
        269,
        232,
        149,
        271,
        240,
        79,
        224,
        185,
        102,
        168,
        37,
        89,
        29,
        12,
        66,
        331,
        186,
        219,
        42,
        167,
        61,
        80,
        324,
        308,
        114,
        120,
        206,
        356,
        109,
        214,
        277,
        143,
        216,
        302,
        279,
        295,
        207,
        287,
        286,
        137,
        43,
        62,
        141,
        213,
        367,
        85,
        34,
        378,
        25,
        30,
        274,
        317,
        221,
        388,
        238,
        117,
        275,
        122,
        297,
        132,
        59,
        67,
        211,
        357,
        368,
        299,
        337,
        162,
        2,
        330,
        153,
        263,
        255,
        283,
        58,
        115,
        384,
        148,
        198,
        292,
        108,
        306,
        244,
        24,
        191,
        339,
        383,
        243,
        204,
        98,
        71,
        97,
        147,
        90,
        56,
        220,
        51,
        60,
        95,
        393,
        78,
        101,
        91,
        83,
        359,
        288,
        22,
        223,
        305,
        124,
        276,
        256,
        116,
        171,
        160,
        106,
        180,
        370,
        338,
        294,
        374,
        16,
        194,
        93,
        363,
        218,
        28,
        68,
        65,
        246,
        21,
        33,
        140,
        5,
        130,
        212,
        123,
        36,
        361,
        341,
        50,
        391,
        381,
        296,
        396,
        377,
        165,
        158,
        399,
        26,
        76,
        254,
        280,
        346,
        215,
        310,
        344,
        335,
        241,
        386,
        290,
        326,
        199,
        111,
        46,
        268,
        49,
        334,
        248,
        187,
        6,
        81,
        252,
        112,
        208,
        234,
        245,
        125,
        332,
        200,
        99,
        340,
        366,
        202,
        155,
        312,
        322,
        159,
        264,
        52,
        329,
        380,
        311,
        144,
        225,
        72,
        369,
        313,
        375,
        8,
        9,
        84,
        45,
        251,
        82,
        350,
        348,
        57,
        235,
        142,
        304,
        128,
        390,
        190,
        231,
        175,
        389,
        7,
        14,
        53,
        145,
        210,
        192,
        327,
        75,
        228,
        163,
        188,
        127,
        352,
        237,
        156,
        94,
        104,
        289,
        196,
        316,
        181,
        318,
        347,
        11,
        173,
        47,
        273,
        169,
        107,
        303,
        39,
        217,
        119,
        360,
        205,
        164,
        96,
        15,
        298,
        86,
        319,
        152,
        131,
        392,
        266,
        387,
        110,
        373,
        35,
        161,
        73,
        44,
        92,
        18,
        146,
        176,
        151,
        177,
        70,
        154,
        315,
        77,
        121,
        183,
        203,
        209,
        23,
        262,
        372,
        270,
        64,
        129,
        257,
        166,
        351,
        103,
        178,
        222,
        349,
        323,
        134,
        133,
        249,
        197,
        0,
        379,
        55,
        376,
        201,
        139,
        63,
        239,
        41,
        397,
        365,
        345,
        195,
        321,
        40,
        105
    ],
    "Global Optimum": 0,
    "Algorithm": "Genetic algorithm",
    "Parameters": {
        "population": 30,
        "offspring": 30,
        "mutation probability": 0.0025,
        "crossover probability": 0.9
    },
    "Fitness": 416340,
    "Solution": [
        31,
        135,
        179,
        189,
        253,
        27,
        281,
        307,
        233,
        301,
        358,
        236,
        309,
        136,
        265,
        300,
        364,
        3,
        250,
        118,
        325,
        17,
        278,
        54,
        242,
        157,
        74,
        229,
        1,
        126,
        394,
        38,
        293,
        20,
        88,
        382,
        398,
        272,
        353,
        247,
        150,
        342,
        174,
        10,
        259,
        260,
        170,
        113,
        336,
        261,
        13,
        291,
        32,
        258,
        193,
        227,
        395,
        100,
        172,
        182,
        184,
        138,
        362,
        320,
        285,
        314,
        328,
        343,
        19,
        230,
        284,
        282,
        355,
        48,
        371,
        226,
        385,
        333,
        69,
        267,
        354,
        4,
        87,
        269,
        232,
        149,
        271,
        240,
        79,
        224,
        185,
        102,
        168,
        37,
        89,
        29,
        12,
        66,
        331,
        186,
        219,
        42,
        167,
        61,
        80,
        324,
        308,
        114,
        120,
        206,
        356,
        109,
        214,
        277,
        143,
        216,
        302,
        279,
        295,
        207,
        287,
        286,
        137,
        43,
        62,
        141,
        213,
        367,
        85,
        34,
        378,
        25,
        30,
        274,
        317,
        221,
        388,
        238,
        117,
        275,
        122,
        297,
        132,
        59,
        67,
        211,
        357,
        368,
        299,
        337,
        162,
        2,
        330,
        153,
        263,
        255,
        283,
        58,
        115,
        384,
        148,
        198,
        292,
        108,
        306,
        244,
        24,
        191,
        339,
        383,
        243,
        204,
        98,
        71,
        97,
        147,
        90,
        56,
        220,
        51,
        60,
        95,
        393,
        78,
        101,
        91,
        83,
        359,
        288,
        22,
        223,
        305,
        124,
        276,
        256,
        116,
        171,
        160,
        106,
        180,
        370,
        338,
        294,
        374,
        16,
        194,
        93,
        363,
        218,
        28,
        68,
        65,
        246,
        21,
        33,
        140,
        5,
        130,
        212,
        123,
        36,
        361,
        341,
        50,
        391,
        381,
        296,
        396,
        377,
        165,
        158,
        399,
        26,
        76,
        254,
        280,
        346,
        215,
        310,
        344,
        335,
        241,
        386,
        290,
        326,
        199,
        111,
        46,
        268,
        49,
        334,
        248,
        187,
        6,
        81,
        252,
        112,
        208,
        234,
        245,
        125,
        332,
        200,
        99,
        340,
        366,
        202,
        155,
        312,
        322,
        159,
        264,
        52,
        329,
        380,
        311,
        144,
        225,
        72,
        369,
        313,
        375,
        8,
        9,
        84,
        45,
        251,
        82,
        350,
        348,
        57,
        235,
        142,
        304,
        128,
        390,
        190,
        231,
        175,
        389,
        7,
        14,
        53,
        145,
        210,
        192,
        327,
        75,
        228,
        163,
        188,
        127,
        352,
        237,
        156,
        94,
        104,
        289,
        196,
        316,
        181,
        318,
        347,
        11,
        173,
        47,
        273,
        169,
        107,
        303,
        39,
        217,
        119,
        360,
        205,
        164,
        96,
        15,
        298,
        86,
        319,
        152,
        131,
        392,
        266,
        387,
        110,
        373,
        35,
        161,
        73,
        44,
        92,
        18,
        146,
        176,
        151,
        177,
        70,
        154,
        315,
        77,
        121,
        183,
        203,
        209,
        23,
        262,
        372,
        270,
        64,
        129,
        257,
        166,
        351,
        103,
        178,
        222,
        349,
        323,
        134,
        133,
        249,
        197,
        0,
        379,
        55,
        376,
        201,
        139,
        63,
        239,
        41,
        397,
        365,
        345,
        195,
        321,
        40,
        105
    ],
    "Nb of functions evaluations": 200010,
    "Computational time in seconds": 529.1719303131104,
    "Stopping criterion in evaluations": 200000
}